(declare-fun b_ack!694 () (_ BitVec 32))
(declare-fun a_ack!695 () (_ BitVec 32))
(assert (not (bvslt b_ack!694 #x00000000)))
(assert (not (bvslt a_ack!695 #x00000000)))
(assert (not (= #x00000000 a_ack!695)))
(assert (not (bvslt b_ack!694 a_ack!695)))
(assert (not (= b_ack!694 a_ack!695)))
(assert (not (= b_ack!694 (bvadd #x00000001 a_ack!695))))
(assert (not (bvslt a_ack!695 #x00000000)))
(assert (not (= #x00000000 (bvand a_ack!695 #x00000001))))
(assert (let ((a!1 (= #x00000000
              (ite (= ((_ extract 31 31) a_ack!695) #b1)
                   (concat #b1 ((_ extract 31 1) a_ack!695))
                   (concat #b0 ((_ extract 31 1) a_ack!695))))))
  (not a!1)))
(assert (let ((a!1 (bvand (ite (= ((_ extract 31 31) a_ack!695) #b1)
                       (concat #b1 ((_ extract 31 1) a_ack!695))
                       (concat #b0 ((_ extract 31 1) a_ack!695)))
                  #x00000001)))
  (= #x00000000 a!1)))

(check-sat)
(exit)
